n=10;
q=[[17,-4,-6,1,6,0,6,2,8,-2],
[-4,36,-14,-9,14,-12,-17,-2,-7,8],
[-6,-14,34,8,-13,14,4,-8,1,-3],
[1,-9,8,15,-2,-4,-5,1,7,-3],
[6,14,-13,-2,31,0,-3,2,0,1],
[0,-12,14,-4,37,2,-2,1,-13,0],
[6,-17,4,-5,-3,2,36,-4,0,3],
[2,-2,-8,1,2,-2,-4,27,4,6],
[-1,-7,1,7,0,1,0,4,37,-7],
[-2,8,-3,-3,1,-13,3,6,-7,21]];
a=[10,9,1,10,3,12,2,15,3,15];
b=46;
